s td 120 11 130
b 1 1 2 14
b 2 12 13 26
b 3 105 118 119
b 4 117 129 130
b 5 2 3 14 15
b 6 11 12 25 26
b 7 3 4 17 31 45 59 73 87 99 113 125
b 8 4 17 31 45 59 73 87 99 113 125 127
b 9 4 5 17 31 45 59 73 87 99 113 127
b 10 5 17 19 31 45 59 73 87 99 113 127
b 11 5 19 31 33 45 59 73 87 99 113 127
b 12 5 19 33 45 47 59 73 87 99 113 127
b 13 5 19 33 47 59 61 73 87 99 113 127
b 14 5 19 33 47 61 73 75 87 99 113 127
b 15 5 19 33 47 61 75 87 99 101 113 127
b 16 5 19 33 47 61 75 87 89 101 113 127
b 17 5 19 33 47 61 75 89 101 113 115 127
b 18 5 19 33 47 61 75 89 101 103 115 127
b 19 5 19 33 47 61 75 89 91 103 115 127
b 20 5 7 19 33 47 61 75 89 91 103
b 21 5 6 7 19
b 22 7 19 21 33 47 61 75 89 91 103
b 23 7 21 33 35 47 61 75 89 91 103
b 24 7 21 35 47 49 61 75 89 91 103
b 25 7 21 35 49 61 63 75 89 91 103
b 26 7 21 35 49 63 75 77 89 91 103
b 27 7 21 35 49 63 65 77 91
b 28 7 21 35 49 51 63 65 77
b 29 7 21 35 37 49 51 63 65
b 30 7 21 23 35 37 49 51 65
b 31 7 11 21 23 35 37 51 65
b 32 7 9 11 21 23 35
b 33 7 8 9 21
b 34 9 10 11 23
b 35 9 21 22 23 35
b 36 11 23 37 39 51 65
b 37 11 23 25 37 39 51
b 38 11 23 24 25 37
b 39 11 25 26 39
b 40 25 37 38 39 51
b 41 39 51 52 65
b 42 23 35 36 37 49
b 43 37 49 50 51 63
b 44 51 63 64 65 77
b 45 65 77 78 91
b 46 63 75 76 77 89
b 47 77 89 90 91 103
b 48 49 61 62 63 75
b 49 35 47 48 49 61
b 50 21 33 34 35 47
b 51 7 19 20 21 33
b 52 91 103 115 127 129
b 53 91 103 115 116 129
b 54 91 103 104 116 129
b 55 115 127 128 129
b 56 89 101 102 103 115
b 57 101 113 114 115 127
b 58 75 87 88 89 101
b 59 87 99 100 101 113
b 60 61 73 74 75 87
b 61 47 59 60 61 73
b 62 33 45 46 47 59
b 63 19 31 32 33 45
b 64 5 17 18 19 31
b 65 113 125 126 127
b 66 3 17 31 45 59 73 85 87 99 113 125
b 67 3 17 31 45 59 71 73 85 99 113 125
b 68 3 17 31 45 57 59 71 85 99 113 125
b 69 3 17 31 43 45 57 71 85 99 113 125
b 70 3 17 29 31 43 57 71 85 99 113 125
b 71 3 17 29 43 57 71 85 99 111 113 125
b 72 3 17 29 43 57 71 85 97 99 111 125
b 73 3 17 29 43 57 71 83 85 97 111 125
b 74 3 17 29 43 57 69 71 83 97 111 125
b 75 3 17 29 43 55 57 69 83 97 111 125
b 76 3 17 29 41 43 55 69 83 97 111 125
b 77 3 17 27 29 41 55 69 83 97 111 125
b 78 3 15 17 27 29 41
b 79 3 14 15 27
b 80 3 15 16 17 29
b 81 15 27 28 29 41
b 82 27 41 55 69 83 97 111 123 125
b 83 27 41 55 69 83 97 109 111 123
b 84 27 41 55 69 83 95 97 109 123
b 85 27 41 55 69 81 83 95 109 123
b 86 27 41 55 67 69 81 95 109 123
b 87 27 41 55 67 79 81 95 109 123
b 88 27 41 53 55 67 79
b 89 27 40 41 53
b 90 41 53 54 55 67
b 91 53 66 67 79
b 92 67 79 81 95 109 121 123
b 93 67 79 81 93 95 109 121
b 94 67 79 80 81 93
b 95 79 81 93 95 107 109 121
b 96 79 93 107 119 121
b 97 79 93 106 107 119
b 98 79 92 93 106 119
b 99 107 119 120 121
b 100 81 93 94 95 107
b 101 95 107 108 109 121
b 102 109 121 122 123
b 103 55 67 68 69 81
b 104 69 81 82 83 95
b 105 83 95 96 97 109
b 106 97 109 110 111 123
b 107 111 123 124 125
b 108 29 41 42 43 55
b 109 43 55 56 57 69
b 110 57 69 70 71 83
b 111 71 83 84 85 97
b 112 85 97 98 99 111
b 113 99 111 112 113 125
b 114 17 29 30 31 43
b 115 31 43 44 45 57
b 116 45 57 58 59 71
b 117 59 71 72 73 85
b 118 73 85 86 87 99
b 119 92 105 106 119
b 120 104 116 117 129
1 5
2 6
3 119
4 120
5 79
6 39
7 8
7 66
8 9
8 65
9 10
10 11
10 64
11 12
11 63
12 13
12 62
13 14
13 61
14 15
14 60
15 16
15 59
16 17
16 58
17 18
17 57
18 19
18 56
19 20
19 52
20 21
20 22
22 23
22 51
23 24
23 50
24 25
24 49
25 26
25 48
26 27
26 46
26 47
27 28
27 45
28 29
28 44
29 30
29 43
30 31
30 42
31 32
31 36
32 33
32 34
32 35
36 37
36 41
37 38
37 39
37 40
52 53
52 55
53 54
54 120
66 67
66 118
67 68
67 117
68 69
68 116
69 70
69 115
70 71
70 114
71 72
71 113
72 73
72 112
73 74
73 111
74 75
74 110
75 76
75 109
76 77
76 108
77 78
77 82
78 79
78 80
78 81
82 83
82 107
83 84
83 106
84 85
84 105
85 86
85 104
86 87
86 103
87 88
87 92
88 89
88 90
88 91
92 93
92 102
93 94
93 95
95 96
95 100
95 101
96 97
96 99
97 98
98 119
